p edge 25 27
e 0 5
e 1 13
e 2 5
e 2 24
e 3 14
e 3 20
e 5 13
e 6 11
e 6 14
e 6 15
e 6 18
e 7 13
e 9 15
e 10 17
e 11 12
e 11 14
e 11 19
e 12 14
e 12 18
e 12 23
e 13 23
e 15 16
e 15 17
e 16 21
e 17 21
e 18 24
e 19 21
